42 41 40 557 556 554 93 90 87 86 85 92 91 555 46 45 44 43 47 48 49 50 84 51 52 54 53 55 56 83 82 57 58 81 59 60 61 63 62 64 76 75 73 74 77 78 79 80 88 89 94 95 96 97 98 553 552 99 100 102 101 551 550 559 558 560 561 562 563 564 549 548 545 546 547 544 543 541 542 107 108 109 110 111 112 113 114 115 116 117 106 105 104 103 118 119 120 121 122 123 71 72 65 66 67 68 70 69 124 125 126 127 128 129 130 131 132 133 134 135 136 137 138 139 140 141 144 143 142 151 150 149 152 148 147 146 145 158 157 159 156 155 153 154 160 161 162 168 163 167 166 164 165 203 204 202 201 200 199 198 205 206 207 208 209 210 211 212 213 214 215 216 217 223 224 222 221 220 218 219 193 194 195 196 197 184 185 183 182 186 188 187 178 179 181 180 169 171 170 175 172 173 174 176 177 540 538 539 537 536 535 534 487 486 485 484 483 481 482 475 476 480 479 477 478 566 565 567 568 569 570 474 473 472 494 524 525 493 492 491 526 523 522 521 520 519 518 495 471 469 470 496 497 498 502 503 504 517 516 515 514 513 512 527 528 529 490 489 488 533 532 531 231 230 229 228 227 189 190 192 191 226 225 232 233 530 234 235 236 511 510 509 237 240 239 238 246 247 245 244 243 242 248 249 250 251 252 254 253 255 256 257 241 300 258 259 260 261 262 299 298 265 263 264 266 267 271 272 269 268 270 296 295 294 293 291 292 273 274 275 290 289 288 276 277 278 279 282 281 280 287 286 285 284 283 334 335 336 337 338 339 333 332 331 330 340 341 343 344 345 346 364 363 362 347 348 350 349 358 359 361 360 357 355 354 353 352 351 415 416 414 413 417 419 418 410 411 412 356 402 401 403 400 399 397 398 370 369 368 367 365 342 366 329 328 327 326 325 323 322 324 297 321 320 319 317 318 305 306 304 307 303 301 302 508 507 506 505 308 309 310 313 312 311 451 501 500 499 452 453 440 441 450 449 448 447 381 380 379 378 377 314 316 315 376 375 374 373 372 371 396 395 394 393 391 392 390 389 388 387 385 408 407 406 405 404 409 384 383 386 382 431 425 424 423 422 421 420 426 427 428 429 430 432 433 434 435 436 437 438 443 444 445 446 442 439 454 455 456 457 458 459 460 461 462 463 464 465 466 467 468 571 572 573 0 1 2 3 4 5 6 7 8 9 10 11 14 15 16 17 18 19 20 13 12 23 22 31 21 24 25 26 27 28 29 30 32 33 34 35 36 37 38 39